NAME: bays29
COMMENT: 29 cities in Bavaria, street distances (Groetschel,Juenger,Reinelt)
TYPE: TSP
DIMENSION: 29
EDGE_WEIGHT_TYPE: EXPLICIT
NODE_COORD_SECTION
1 1150.0 1760.0
2 630.0 1660.0
3 40.0 2090.0
4 750.0 1100.0
5 750.0 2030.0
EOF